p cnf 11 37
c max 8 9 10 11 0
c ind 1 2 3 4 5 6 7 0
c p complex 2 0.9238795325112867384831361050601117312908172607421875 -0.382683432365089781779232680491986684501171112060546875 0
c p complex -2 1 0 0
c p weight 4 -1 0
c p weight -4 1 0
c p weight 5 0.70710678118654752440084436210485 0
c p weight -5 1 0
c p complex 6 0.70710678118654752440084436210485 0.70710678118654752440084436210485 0
c p complex -6 1 0 0
c p complex 7 0.70710678118654752440084436210485 -0.70710678118654752440084436210485 0
c p complex -7 1 0 0
2 -1 0
-2 1 0
3 -8 -1 0
-3 -8 1 0
-4 -8 0
-5 -8 0
-7 -8 0
-6 -8 0
-4 3 -9 0
-4 -9 1 0
4 -3 -9 -1 0
5 -9 0
-7 -9 0
-6 -9 0
3 -11 -1 0
3 -10 -1 0
-3 -11 1 0
-3 -10 1 0
-4 -11 0
-4 -10 0
-5 -11 0
-5 -10 0
-7 -10 0
-6 -11 0
7 -11 -1 0
6 -10 -1 0
-7 -11 1 0
-6 -10 1 0
8 9 10 11 0
-8 -9 0
-8 -10 0
-8 -11 0
-9 -10 0
-9 -11 0
-10 -11 0
3 -1 0
-3 1 0
